
Gurobi 9.5.2 (win64) logging started Wed Apr  5 23:02:07 2023

Set parameter LogFile to value "2023-04-05_23hr-02min-04sec/Nodes100_Arcs100_LocNodes75/Formulation-2Instance-1.log"
Set parameter TimeLimit to value 1200
Set parameter IntFeasTol to value 1e-09
Set parameter DualReductions to value 0
Set parameter NonConvex to value 2
Gurobi Optimizer version 9.5.2 build v9.5.2rc0 (win64)
Thread count: 4 physical cores, 8 logical processors, using up to 8 threads
Optimize a model with 376 rows, 650 columns and 1300 nonzeros
Model fingerprint: 0xeae10e4e
Model has 200 quadratic objective terms
Model has 200 SOS constraints
Variable types: 575 continuous, 75 integer (75 binary)
Coefficient statistics:
  Matrix range     [9e-03, 2e+02]
  Objective range  [4e-02, 1e+03]
  QObjective range [2e-02, 8e+00]
  Bounds range     [1e+00, 1e+00]
  RHS range        [4e-02, 7e+03]
Presolve removed 93 rows and 121 columns
Presolve time: 0.00s
Presolved: 283 rows, 529 columns, 971 nonzeros
Presolved model has 146 SOS constraint(s)
Presolved model has 146 quadratic objective terms
Variable types: 454 continuous, 75 integer (75 binary)

Root relaxation: objective 2.121329e+06, 642 iterations, 0.00 seconds (0.00 work units)

    Nodes    |    Current Node    |     Objective Bounds      |     Work
 Expl Unexpl |  Obj  Depth IntInf | Incumbent    BestBd   Gap | It/Node Time

     0     0 2121329.05    0   19          - 2121329.05      -     -    0s
H    0     0                    2097006.3034 2121329.05  1.16%     -    0s
H    0     0                    2099099.8811 2121329.05  1.06%     -    0s
     0     0 2121328.22    0   19 2099099.88 2121328.22  1.06%     -    0s
H    0     0                    2112486.8769 2121328.22  0.42%     -    0s
H    0     0                    2113076.0757 2121328.22  0.39%     -    0s
     0     0 2120850.37    0   16 2113076.08 2120850.37  0.37%     -    0s
     0     0 2120850.37    0   16 2113076.08 2120850.37  0.37%     -    0s
H    0     0                    2118870.5739 2120850.37  0.09%     -    0s
H    0     0                    2118871.4951 2120850.37  0.09%     -    0s
     0     0 2120469.76    0   36 2118871.50 2120469.76  0.08%     -    0s
     0     0 2120039.84    0   33 2118871.50 2120039.84  0.06%     -    0s
     0     0 2119940.14    0   33 2118871.50 2119940.14  0.05%     -    0s
     0     0 2119730.46    0   34 2118871.50 2119730.46  0.04%     -    0s
H    0     0                    2118926.3209 2119730.46  0.04%     -    0s
     0     0 2119460.82    0   33 2118926.32 2119460.82  0.03%     -    0s
     0     0 2119361.60    0   35 2118926.32 2119361.60  0.02%     -    0s
H    0     0                    2119361.6000 2119361.60  0.00%     -    0s

Cutting planes:
  Gomory: 1
  Cover: 4
  Implied bound: 6
  Clique: 5
  MIR: 6
  Flow cover: 19
  RLT: 1
  Relax-and-lift: 6

Explored 1 nodes (1214 simplex iterations) in 0.16 seconds (0.04 work units)
Thread count was 8 (of 8 available processors)

Solution count 6: 2.11936e+06 2.11893e+06 2.11308e+06 ... 2.09701e+06

Optimal solution found (tolerance 1.00e-04)
Best objective 2.119361600030e+06, best bound 2.119361600030e+06, gap 0.0000%

User-callback calls 387, time in user-callback 0.00 sec
